
Gurobi 9.0.1 (linux64) logging started Thu Apr 30 05:57:54 2020

Gurobi Optimizer version 9.0.1 build v9.0.1rc0 (linux64)
Optimize a model with 860 rows, 990 columns and 6912 nonzeros
Model fingerprint: 0x2c755e68
Variable types: 0 continuous, 990 integer (980 binary)
Coefficient statistics:
  Matrix range     [1e+00, 5e+00]
  Objective range  [1e+01, 1e+02]
  Bounds range     [1e+00, 1e+00]
  RHS range        [1e+00, 1e+00]

User MIP start produced solution with objective 568 (0.00s)
Loaded user MIP start with objective 568

Presolve removed 182 rows and 348 columns
Presolve time: 0.06s
Presolved: 678 rows, 642 columns, 4950 nonzeros
Variable types: 0 continuous, 642 integer (634 binary)

Root relaxation: objective 4.128592e+02, 546 iterations, 0.03 seconds

    Nodes    |    Current Node    |     Objective Bounds      |     Work
 Expl Unexpl |  Obj  Depth IntInf | Incumbent    BestBd   Gap | It/Node Time

     0     0  412.85919    0  285  568.00000  412.85919  27.3%     -    0s
     0     0  423.88571    0  297  568.00000  423.88571  25.4%     -    0s
     0     0  424.41430    0  304  568.00000  424.41430  25.3%     -    0s
     0     0  424.63699    0  306  568.00000  424.63699  25.2%     -    0s
     0     0  429.17190    0  299  568.00000  429.17190  24.4%     -    0s
     0     0  429.52272    0  307  568.00000  429.52272  24.4%     -    0s
     0     0  429.72604    0  307  568.00000  429.72604  24.3%     -    0s
     0     0  429.74659    0  314  568.00000  429.74659  24.3%     -    0s
     0     0  429.74880    0  317  568.00000  429.74880  24.3%     -    0s
     0     0  434.30004    0  315  568.00000  434.30004  23.5%     -    0s
     0     0  434.80711    0  319  568.00000  434.80711  23.4%     -    0s
     0     0  434.96836    0  327  568.00000  434.96836  23.4%     -    0s
     0     0  435.00065    0  324  568.00000  435.00065  23.4%     -    0s
     0     0  435.00363    0  325  568.00000  435.00363  23.4%     -    0s
     0     0  438.21443    0  322  568.00000  438.21443  22.8%     -    0s
     0     0  438.51076    0  323  568.00000  438.51076  22.8%     -    0s
     0     0  438.53545    0  321  568.00000  438.53545  22.8%     -    0s
     0     0  438.53946    0  319  568.00000  438.53946  22.8%     -    1s
     0     0  439.48873    0  334  568.00000  439.48873  22.6%     -    1s
     0     0  439.59647    0  332  568.00000  439.59647  22.6%     -    1s
     0     0  439.60577    0  322  568.00000  439.60577  22.6%     -    1s
     0     0  440.06745    0  324  568.00000  440.06745  22.5%     -    1s
     0     0  440.13116    0  322  568.00000  440.13116  22.5%     -    1s
     0     0  440.14805    0  322  568.00000  440.14805  22.5%     -    1s
     0     0  441.94255    0  325  568.00000  441.94255  22.2%     -    1s
     0     0  442.08602    0  330  568.00000  442.08602  22.2%     -    1s
     0     0  442.09529    0  332  568.00000  442.09529  22.2%     -    1s
     0     0  442.16131    0  329  568.00000  442.16131  22.2%     -    1s
     0     0  442.16131    0  329  568.00000  442.16131  22.2%     -    1s
     0     0  442.19624    0  291  568.00000  442.19624  22.1%     -    1s
     0     0  442.19624    0  323  568.00000  442.19624  22.1%     -    1s
     0     0  442.19624    0  325  568.00000  442.19624  22.1%     -    1s
     0     0  442.19624    0  319  568.00000  442.19624  22.1%     -    1s
     0     0  442.19624    0  312  568.00000  442.19624  22.1%     -    1s
     0     0  442.19624    0  323  568.00000  442.19624  22.1%     -    1s
     0     0  442.19624    0  325  568.00000  442.19624  22.1%     -    1s
     0     0  442.19624    0  324  568.00000  442.19624  22.1%     -    1s
     0     0  443.36854    0  325  568.00000  443.36854  21.9%     -    2s
     0     0  443.57300    0  325  568.00000  443.57300  21.9%     -    2s
     0     0  443.60447    0  327  568.00000  443.60447  21.9%     -    2s
     0     0  443.67002    0  326  568.00000  443.67002  21.9%     -    2s
     0     0  443.69242    0  323  568.00000  443.69242  21.9%     -    2s
     0     0  444.75097    0  322  568.00000  444.75097  21.7%     -    2s
     0     0  445.20489    0  328  568.00000  445.20489  21.6%     -    2s
     0     0  445.32563    0  326  568.00000  445.32563  21.6%     -    2s
     0     0  445.33271    0  324  568.00000  445.33271  21.6%     -    2s
     0     0  445.51405    0  324  568.00000  445.51405  21.6%     -    2s
     0     0  445.56118    0  329  568.00000  445.56118  21.6%     -    2s
     0     0  445.57467    0  327  568.00000  445.57467  21.6%     -    2s
     0     0  445.62419    0  327  568.00000  445.62419  21.5%     -    2s
     0     0  445.62419    0  327  568.00000  445.62419  21.5%     -    2s
     0     2  445.64959    0  327  568.00000  445.64959  21.5%     -    2s
   150   126  532.92308   11  112  568.00000  465.79381  18.0%   157    5s
H  273    85                     518.0000000  469.41782  9.38%   152    6s
   555   117  508.65958    8  168  518.00000  489.06979  5.58%   131   10s
   976   102  509.41889   13  202  518.00000  502.27123  3.04%   115   15s

Cutting planes:
  Cover: 2
  MIR: 20
  Zero half: 26
  RLT: 230

Explored 1246 nodes (132794 simplex iterations) in 16.95 seconds
Thread count was 1 (of 40 available processors)

Solution count 2: 518 568 

Optimal solution found (tolerance 1.00e-04)
Best objective 5.180000000000e+02, best bound 5.180000000000e+02, gap 0.0000%

User-callback calls 5943, time in user-callback 0.00 sec
